Test: battleship-10-18-sat.cnf
Options: -no-inverting-opt -sym-usage-var-bump
WARNING: for repeatability, setting FPU to use double precision
============================[ Problem Statistics ]=============================
|                                                                             |
|  Number of symmetries:           13                                         |
|  Number of invertingSyms:         0                                         |
|  Number of variables:           180                                         |
|  Number of clauses:             910                                         |
|  Parse time:                   0.00 s                                       |
|                                                                             |
============================[ Search Statistics ]==============================
| Conflicts |          ORIGINAL         |          LEARNT          | Progress |
|           |    Vars  Clauses Literals |    Limit  Clauses Lit/Cl |          |
===============================================================================
|       100 |     180      910     3420 |      333      145     83 |  0.003 % |
===============================================================================
restarts              : 3
conflicts             : 233            (29125 /sec)
symconflicts          : 13             (1625 /sec)
decisions             : 704            (0.00 % random) (88000 /sec)
propagations          : 4479           (559875 /sec)
sympropagations       : 52             (6500 /sec)
conflict literals     : 16621          (0.33 % deleted)
literals     : 16621          (0.33 % deleted)

HEURISTIC USAGES
random                : 0           
activity w/ lookahead : 0           
activity no lookahead : 0           
original sp           : 703         
sym count             : 0           

Memory used           : 5.00 MB
CPU time              : 0.008 s

SATISFIABLE
